33D32945 STP File, STP Format Version 1.0

SECTION Comments
Name "shell_n13_d3_s14"
Problem "Euclidean Steiner Tree Problem"
Remark "Generated with STPGenerator. 3 dimensions."
END

SECTION Graph
Nodes 13
END

SECTION Coordinates
DDD 0 -0.0876821943 -0.9854126123 0.1458554639
DDD 1 0.3179940115 -0.8217136565 0.4729339017
DDD 2 0.1744893027 -0.6689694876 0.7225187249
DDD 3 -0.5898062930 -0.0210484339 0.8072704009
DDD 4 0.4112062483 -0.4680638896 -0.7821928257
DDD 5 -0.7023006640 0.4086338330 0.5829169477
DDD 6 0.0405423138 0.4141825919 -0.9092904384
DDD 7 -0.4698214823 -0.7298819197 0.4965281040
DDD 8 0.3465342022 0.9376394435 -0.0273188691
DDD 9 -0.4288869095 0.8533572784 0.2963737071
DDD 10 -0.9393703745 0.0569365427 -0.3381442439
DDD 11 0.7729475989 0.1536110922 -0.6155937310
DDD 12 0.6076644866 -0.5665695571 0.5565454238
END
